NAME: GRASP_29_14
TYPE: TSP
COMMENT: line_29_14
DIMENSION: 29
EDGE_WEIGHT_TYPE: EUC_2D
NODE_COORD_SECTION
1 4099 2762
2 1637 1320
3 4143 2982
4 3437 2822
5 1308 4962
6 2089 1738
7 4825 243
8 4916 862
9 3116 2487
10 249 2918
11 3231 1714
12 1383 1948
13 2970 1990
14 4128 762
15 1637 3108
16 842 13
17 3787 1283
18 3254 73
19 1073 782
20 3432 1119
21 400 3613
22 3604 302
23 3772 1522
24 1102 2623
25 2923 3884
26 2165 1555
27 2071 1347
28 1202 165
29 2435 4660
